4 10 6 15 8 17 18 14 11 16 5 9 19 0 1 7 13 12 2 3  
4 15 6 10 8 17 18 14 11 12 5 9 19 2 7 1 0 13 16 3  
6 10 4 15 18 17 8 19 12 5 11 7 9 1 0 13 2 16 3 14  
6 10 4 15 18 17 8 11 14 12 0 1 5 9 13 2 16 7 3 19  
4 10 6 18 15 17 8 19 12 5 11 7 9 1 0 13 2 16 3 14  
4 10 6 15 8 17 18 14 11 16 5 9 19 0 1 7 13 12 2 3  
6 10 4 15 18 17 8 19 12 5 11 7 9 1 0 13 2 16 3 14  
6 10 4 15 18 17 8 14 11 12 5 9 19 7 1 0 13 2 16 3  
4 10 6 18 15 17 8 19 12 5 11 7 9 1 0 13 2 16 3 14  
4 10 6 15 8 17 18 14 11 16 0 12 9 19 5 3 1 7 13 2  
4 10 6 15 8 17 18 14 11 16 5 9 19 0 1 2 13 12 7 3  
